sat
(
(define-fun w1_1_1 () Real (- 2.0))
(define-fun w1_1_2 () Real (- 2.0))
(define-fun w1_1_3 () Real (- 2.0))
(define-fun w1_1_4 () Real (- 1.0))
(define-fun w1_1_5 () Real (- 1.0))
(define-fun w1_1_6 () Real (- 1.0))
(define-fun w1_1_7 () Real (/ (- 1) 2097152))
(define-fun w1_1_8 () Real (- 1.0))
(define-fun w1_1_9 () Real (- 1.0))
(define-fun w1_1_10 () Real (- 2.0))
(define-fun w1_1_11 () Real (/ (- 47167881) 262144))
(define-fun w1_1_12 () Real (- 1.0))
(define-fun w1_1_13 () Real (- 2.0))
(define-fun w1_1_14 () Real (- 2.0))
(define-fun w1_1_15 () Real (- 2.0))
(define-fun w1_1_16 () Real (- 2.0))
(define-fun w1_1_17 () Real (- 2.0))
(define-fun w1_1_18 () Real (- 1.0))
(define-fun w1_1_19 () Real (- 2.0))
(define-fun w1_1_20 () Real (- 1.0))
(define-fun w1_1_21 () Real (- 2.0))
(define-fun w1_1_22 () Real (- 1.0))
(define-fun w1_1_23 () Real (- 2.0))
(define-fun w1_1_24 () Real (- 1.0))
(define-fun w1_1_25 () Real (- 1.0))
(define-fun w1_1_26 () Real (- 2.0))
(define-fun w1_1_27 () Real (- 2.0))
(define-fun w1_1_28 () Real (- 1.0))
(define-fun w1_1_29 () Real (- 2.0))
(define-fun w1_1_30 () Real (- 2.0))
(define-fun w1_1_31 () Real (- 1.0))
(define-fun w1_1_32 () Real (/ 1 4))
(define-fun w1_1_33 () Real (/ 1 4))
(define-fun w1_1_34 () Real (- 2.0))
(define-fun w1_1_35 () Real (- 2.0))
(define-fun w1_1_36 () Real (- 2.0))
(define-fun w1_1_37 () Real (- 2.0))
(define-fun w1_1_38 () Real (- 2.0))
(define-fun w1_1_39 () Real (- 1.0))
(define-fun b1_1 () Real 0.0)
(define-fun w1_2_1 () Real (- 1.0))
(define-fun w1_2_2 () Real (- 1.0))
(define-fun w1_2_3 () Real (- 1.0))
(define-fun w1_2_4 () Real (- 1.0))
(define-fun w1_2_5 () Real (- 1.0))
(define-fun w1_2_6 () Real (- 1.0))
(define-fun w1_2_7 () Real (/ (- 1) 131072))
(define-fun w1_2_8 () Real (- 1.0))
(define-fun w1_2_9 () Real (- 1.0))
(define-fun w1_2_10 () Real (- 1.0))
(define-fun w1_2_11 () Real (- 1.0))
(define-fun w1_2_12 () Real (- 1.0))
(define-fun w1_2_13 () Real (- 1.0))
(define-fun w1_2_14 () Real (- 1.0))
(define-fun w1_2_15 () Real (- 1.0))
(define-fun w1_2_16 () Real (/ (- 1) 16384))
(define-fun w1_2_17 () Real (/ (- 1) 512))
(define-fun w1_2_18 () Real (- 1.0))
(define-fun w1_2_19 () Real (- 1.0))
(define-fun w1_2_20 () Real (- 1.0))
(define-fun w1_2_21 () Real (- 1.0))
(define-fun w1_2_22 () Real (- 1.0))
(define-fun w1_2_23 () Real (- 1.0))
(define-fun w1_2_24 () Real (- 1.0))
(define-fun w1_2_25 () Real (- 1.0))
(define-fun w1_2_26 () Real (- 1.0))
(define-fun w1_2_27 () Real (- 1.0))
(define-fun w1_2_28 () Real (- 1.0))
(define-fun w1_2_29 () Real (- 1.0))
(define-fun w1_2_30 () Real (- 1.0))
(define-fun w1_2_31 () Real (- 1.0))
(define-fun w1_2_32 () Real (- 1.0))
(define-fun w1_2_33 () Real (- 1.0))
(define-fun w1_2_34 () Real 0.0)
(define-fun w1_2_35 () Real (- 1.0))
(define-fun w1_2_36 () Real 0.0)
(define-fun w1_2_37 () Real (- 83.0))
(define-fun w1_2_38 () Real (- 1.0))
(define-fun w1_2_39 () Real (- 1.0))
(define-fun b1_2 () Real 0.0)
(define-fun w1_3_1 () Real (- 1.0))
(define-fun w1_3_2 () Real (- 1.0))
(define-fun w1_3_3 () Real (- 1.0))
(define-fun w1_3_4 () Real (- 1.0))
(define-fun w1_3_5 () Real (- 1.0))
(define-fun w1_3_6 () Real (- 1.0))
(define-fun w1_3_7 () Real (/ (- 1) 65536))
(define-fun w1_3_8 () Real (- 1.0))
(define-fun w1_3_9 () Real (- 1.0))
(define-fun w1_3_10 () Real (- 1.0))
(define-fun w1_3_11 () Real (- 1.0))
(define-fun w1_3_12 () Real (- 1.0))
(define-fun w1_3_13 () Real (/ (- 75151) 128))
(define-fun w1_3_14 () Real (- 1.0))
(define-fun w1_3_15 () Real (- 1.0))
(define-fun w1_3_16 () Real (/ (- 1) 4194304))
(define-fun w1_3_17 () Real (/ (- 1) 2))
(define-fun w1_3_18 () Real (- 1.0))
(define-fun w1_3_19 () Real (- 1.0))
(define-fun w1_3_20 () Real (- 1.0))
(define-fun w1_3_21 () Real (- 1.0))
(define-fun w1_3_22 () Real (- 1.0))
(define-fun w1_3_23 () Real (- 1.0))
(define-fun w1_3_24 () Real (- 1.0))
(define-fun w1_3_25 () Real (- 1.0))
(define-fun w1_3_26 () Real (- 1.0))
(define-fun w1_3_27 () Real (- 1.0))
(define-fun w1_3_28 () Real (- 1.0))
(define-fun w1_3_29 () Real (- 1.0))
(define-fun w1_3_30 () Real (- 1.0))
(define-fun w1_3_31 () Real (- 1.0))
(define-fun w1_3_32 () Real (- 1.0))
(define-fun w1_3_33 () Real (- 1.0))
(define-fun w1_3_34 () Real 0.0)
(define-fun w1_3_35 () Real (- 1.0))
(define-fun w1_3_36 () Real 0.0)
(define-fun w1_3_37 () Real 0.0)
(define-fun w1_3_38 () Real (- 1.0))
(define-fun w1_3_39 () Real (- 1.0))
(define-fun b1_3 () Real 0.0)
(define-fun w1_4_1 () Real (- 1.0))
(define-fun w1_4_2 () Real (- 81.0))
(define-fun w1_4_3 () Real (- 1.0))
(define-fun w1_4_4 () Real (- 1.0))
(define-fun w1_4_5 () Real (- 1.0))
(define-fun w1_4_6 () Real (- 1.0))
(define-fun w1_4_7 () Real (/ (- 1) 4194304))
(define-fun w1_4_8 () Real (- 1.0))
(define-fun w1_4_9 () Real (- 1.0))
(define-fun w1_4_10 () Real (- 1.0))
(define-fun w1_4_11 () Real (- 1.0))
(define-fun w1_4_12 () Real (- 1.0))
(define-fun w1_4_13 () Real (- 1.0))
(define-fun w1_4_14 () Real (- 1.0))
(define-fun w1_4_15 () Real (- 1.0))
(define-fun w1_4_16 () Real (/ (- 1) 524288))
(define-fun w1_4_17 () Real (/ (- 1) 128))
(define-fun w1_4_18 () Real (- 1.0))
(define-fun w1_4_19 () Real (- 1.0))
(define-fun w1_4_20 () Real (- 1.0))
(define-fun w1_4_21 () Real (- 1.0))
(define-fun w1_4_22 () Real (- 1.0))
(define-fun w1_4_23 () Real (- 1.0))
(define-fun w1_4_24 () Real (- 1.0))
(define-fun w1_4_25 () Real (- 1.0))
(define-fun w1_4_26 () Real (- 1.0))
(define-fun w1_4_27 () Real (- 1.0))
(define-fun w1_4_28 () Real (- 1.0))
(define-fun w1_4_29 () Real (- 1.0))
(define-fun w1_4_30 () Real (- 1.0))
(define-fun w1_4_31 () Real (- 1.0))
(define-fun w1_4_32 () Real (- 1.0))
(define-fun w1_4_33 () Real (- 1.0))
(define-fun w1_4_34 () Real (/ (- 781) 128))
(define-fun w1_4_35 () Real (- 1.0))
(define-fun w1_4_36 () Real (/ 70445 16384))
(define-fun w1_4_37 () Real 0.0)
(define-fun w1_4_38 () Real (- 1.0))
(define-fun w1_4_39 () Real (- 1.0))
(define-fun b1_4 () Real 0.0)
(define-fun w2_1_1 () Real (- 2.0))
(define-fun w2_1_2 () Real (- 1.0))
(define-fun w2_1_3 () Real (- 1.0))
(define-fun w2_1_4 () Real (- 1.0))
(define-fun b_out () Real (/ 604602097 16777216))
)
